(set-logic QF_LRA)
(declare-fun T1 () Real )
(declare-fun T2 () Real )
(declare-fun T3 () Real )
(declare-fun T4 () Real )
(declare-fun T5 () Real )
(declare-fun T6 () Real )
(declare-fun T7 () Real )
(declare-fun T8 () Real )
(declare-fun T9 () Real )
(declare-fun T10 () Real )
(declare-fun Z () Real )
(declare-fun k () Real )
(assert (let
(( $goal (>= Z k) ))
(let
((
$phi ( and 
(or ( <= ( + T1 23 ) T2 ) ( <= ( + T2 50 ) T1 ) )
(or ( <= ( + T1 38 )  ( + T2 50 ) ) ( <= ( + T2 143 )( + T1 23 ) ) )
(or ( <= ( + T1 116 )  ( + T2 143 ) ) ( <= ( + T2 216 )( + T1 38 ) ) )
(or ( <= ( + T1 187 )  ( + T2 216 ) ) ( <= ( + T2 250 )( + T1 116 ) ) )
(or ( <= ( + T1 279 )  ( + T2 250 ) ) ( <= ( + T2 295 )( + T1 187 ) ) )
(or ( <= ( + T1 336 )  ( + T2 295 ) ) ( <= ( + T2 373 )( + T1 279 ) ) )
(or ( <= ( + T1 391 )  ( + T2 373 ) ) ( <= ( + T2 461 )( + T1 336 ) ) )
(or ( <= ( + T1 473 )  ( + T2 461 ) ) ( <= ( + T2 520 )( + T1 391 ) ) )
(or ( <= ( + T1 23 ) T3 ) ( <= ( + T3 71 ) T1 ) )
(or ( <= ( + T1 38 )  ( + T3 71 ) ) ( <= ( + T3 95 )( + T1 23 ) ) )
(or ( <= ( + T1 116 )  ( + T3 95 ) ) ( <= ( + T3 144 )( + T1 38 ) ) )
(or ( <= ( + T1 187 )  ( + T3 144 ) ) ( <= ( + T3 213 )( + T1 116 ) ) )
(or ( <= ( + T1 279 )  ( + T3 213 ) ) ( <= ( + T3 274 )( + T1 187 ) ) )
(or ( <= ( + T1 336 )  ( + T3 274 ) ) ( <= ( + T3 356 )( + T1 279 ) ) )
(or ( <= ( + T1 391 )  ( + T3 356 ) ) ( <= ( + T3 430 )( + T1 336 ) ) )
(or ( <= ( + T1 473 )  ( + T3 430 ) ) ( <= ( + T3 505 )( + T1 391 ) ) )
(or ( <= ( + T1 23 ) T4 ) ( <= ( + T4 72 ) T1 ) )
(or ( <= ( + T1 38 )  ( + T4 72 ) ) ( <= ( + T4 162 )( + T1 23 ) ) )
(or ( <= ( + T1 116 )  ( + T4 162 ) ) ( <= ( + T4 187 )( + T1 38 ) ) )
(or ( <= ( + T1 187 )  ( + T4 187 ) ) ( <= ( + T4 270 )( + T1 116 ) ) )
(or ( <= ( + T1 279 )  ( + T4 270 ) ) ( <= ( + T4 316 )( + T1 187 ) ) )
(or ( <= ( + T1 336 )  ( + T4 316 ) ) ( <= ( + T4 403 )( + T1 279 ) ) )
(or ( <= ( + T1 391 )  ( + T4 403 ) ) ( <= ( + T4 457 )( + T1 336 ) ) )
(or ( <= ( + T1 473 )  ( + T4 457 ) ) ( <= ( + T4 477 )( + T1 391 ) ) )
(or ( <= ( + T1 23 ) T5 ) ( <= ( + T5 2 ) T1 ) )
(or ( <= ( + T1 38 )  ( + T5 2 ) ) ( <= ( + T5 34 )( + T1 23 ) ) )
(or ( <= ( + T1 116 )  ( + T5 34 ) ) ( <= ( + T5 124 )( + T1 38 ) ) )
(or ( <= ( + T1 187 )  ( + T5 124 ) ) ( <= ( + T5 217 )( + T1 116 ) ) )
(or ( <= ( + T1 279 )  ( + T5 217 ) ) ( <= ( + T5 257 )( + T1 187 ) ) )
(or ( <= ( + T1 336 )  ( + T5 257 ) ) ( <= ( + T5 354 )( + T1 279 ) ) )
(or ( <= ( + T1 391 )  ( + T5 354 ) ) ( <= ( + T5 428 )( + T1 336 ) ) )
(or ( <= ( + T1 473 )  ( + T5 428 ) ) ( <= ( + T5 518 )( + T1 391 ) ) )
(or ( <= ( + T1 23 ) T6 ) ( <= ( + T6 41 ) T1 ) )
(or ( <= ( + T1 38 )  ( + T6 41 ) ) ( <= ( + T6 140 )( + T1 23 ) ) )
(or ( <= ( + T1 116 )  ( + T6 140 ) ) ( <= ( + T6 215 )( + T1 38 ) ) )
(or ( <= ( + T1 187 )  ( + T6 215 ) ) ( <= ( + T6 252 )( + T1 116 ) ) )
(or ( <= ( + T1 279 )  ( + T6 252 ) ) ( <= ( + T6 280 )( + T1 187 ) ) )
(or ( <= ( + T1 336 )  ( + T6 280 ) ) ( <= ( + T6 294 )( + T1 279 ) ) )
(or ( <= ( + T1 391 )  ( + T6 294 ) ) ( <= ( + T6 389 )( + T1 336 ) ) )
(or ( <= ( + T1 473 )  ( + T6 389 ) ) ( <= ( + T6 487 )( + T1 391 ) ) )
(or ( <= ( + T1 23 ) T7 ) ( <= ( + T7 37 ) T1 ) )
(or ( <= ( + T1 38 )  ( + T7 37 ) ) ( <= ( + T7 132 )( + T1 23 ) ) )
(or ( <= ( + T1 116 )  ( + T7 132 ) ) ( <= ( + T7 151 )( + T1 38 ) ) )
(or ( <= ( + T1 187 )  ( + T7 151 ) ) ( <= ( + T7 201 )( + T1 116 ) ) )
(or ( <= ( + T1 279 )  ( + T7 201 ) ) ( <= ( + T7 277 )( + T1 187 ) ) )
(or ( <= ( + T1 336 )  ( + T7 277 ) ) ( <= ( + T7 321 )( + T1 279 ) ) )
(or ( <= ( + T1 391 )  ( + T7 321 ) ) ( <= ( + T7 345 )( + T1 336 ) ) )
(or ( <= ( + T1 473 )  ( + T7 345 ) ) ( <= ( + T7 444 )( + T1 391 ) ) )
(or ( <= ( + T1 23 ) T8 ) ( <= ( + T8 34 ) T1 ) )
(or ( <= ( + T1 38 )  ( + T8 34 ) ) ( <= ( + T8 134 )( + T1 23 ) ) )
(or ( <= ( + T1 116 )  ( + T8 134 ) ) ( <= ( + T8 215 )( + T1 38 ) ) )
(or ( <= ( + T1 187 )  ( + T8 215 ) ) ( <= ( + T8 246 )( + T1 116 ) ) )
(or ( <= ( + T1 279 )  ( + T8 246 ) ) ( <= ( + T8 333 )( + T1 187 ) ) )
(or ( <= ( + T1 336 )  ( + T8 333 ) ) ( <= ( + T8 420 )( + T1 279 ) ) )
(or ( <= ( + T1 391 )  ( + T8 420 ) ) ( <= ( + T8 470 )( + T1 336 ) ) )
(or ( <= ( + T1 473 )  ( + T8 470 ) ) ( <= ( + T8 558 )( + T1 391 ) ) )
(or ( <= ( + T1 23 ) T9 ) ( <= ( + T9 70 ) T1 ) )
(or ( <= ( + T1 38 )  ( + T9 70 ) ) ( <= ( + T9 162 )( + T1 23 ) ) )
(or ( <= ( + T1 116 )  ( + T9 162 ) ) ( <= ( + T9 242 )( + T1 38 ) ) )
(or ( <= ( + T1 187 )  ( + T9 242 ) ) ( <= ( + T9 251 )( + T1 116 ) ) )
(or ( <= ( + T1 279 )  ( + T9 251 ) ) ( <= ( + T9 291 )( + T1 187 ) ) )
(or ( <= ( + T1 336 )  ( + T9 291 ) ) ( <= ( + T9 297 )( + T1 279 ) ) )
(or ( <= ( + T1 391 )  ( + T9 297 ) ) ( <= ( + T9 347 )( + T1 336 ) ) )
(or ( <= ( + T1 473 )  ( + T9 347 ) ) ( <= ( + T9 427 )( + T1 391 ) ) )
(or ( <= ( + T1 23 ) T10 ) ( <= ( + T10 4 ) T1 ) )
(or ( <= ( + T1 38 )  ( + T10 4 ) ) ( <= ( + T10 80 )( + T1 23 ) ) )
(or ( <= ( + T1 116 )  ( + T10 80 ) ) ( <= ( + T10 96 )( + T1 38 ) ) )
(or ( <= ( + T1 187 )  ( + T10 96 ) ) ( <= ( + T10 179 )( + T1 116 ) ) )
(or ( <= ( + T1 279 )  ( + T10 179 ) ) ( <= ( + T10 269 )( + T1 187 ) ) )
(or ( <= ( + T1 336 )  ( + T10 269 ) ) ( <= ( + T10 331 )( + T1 279 ) ) )
(or ( <= ( + T1 391 )  ( + T10 331 ) ) ( <= ( + T10 411 )( + T1 336 ) ) )
(or ( <= ( + T1 473 )  ( + T10 411 ) ) ( <= ( + T10 437 )( + T1 391 ) ) )
(or ( <= ( + T2 50 ) T3 ) ( <= ( + T3 71 ) T2 ) )
(or ( <= ( + T2 143 )  ( + T3 71 ) ) ( <= ( + T3 95 )( + T2 50 ) ) )
(or ( <= ( + T2 216 )  ( + T3 95 ) ) ( <= ( + T3 144 )( + T2 143 ) ) )
(or ( <= ( + T2 250 )  ( + T3 144 ) ) ( <= ( + T3 213 )( + T2 216 ) ) )
(or ( <= ( + T2 295 )  ( + T3 213 ) ) ( <= ( + T3 274 )( + T2 250 ) ) )
(or ( <= ( + T2 373 )  ( + T3 274 ) ) ( <= ( + T3 356 )( + T2 295 ) ) )
(or ( <= ( + T2 461 )  ( + T3 356 ) ) ( <= ( + T3 430 )( + T2 373 ) ) )
(or ( <= ( + T2 520 )  ( + T3 430 ) ) ( <= ( + T3 505 )( + T2 461 ) ) )
(or ( <= ( + T2 50 ) T4 ) ( <= ( + T4 72 ) T2 ) )
(or ( <= ( + T2 143 )  ( + T4 72 ) ) ( <= ( + T4 162 )( + T2 50 ) ) )
(or ( <= ( + T2 216 )  ( + T4 162 ) ) ( <= ( + T4 187 )( + T2 143 ) ) )
(or ( <= ( + T2 250 )  ( + T4 187 ) ) ( <= ( + T4 270 )( + T2 216 ) ) )
(or ( <= ( + T2 295 )  ( + T4 270 ) ) ( <= ( + T4 316 )( + T2 250 ) ) )
(or ( <= ( + T2 373 )  ( + T4 316 ) ) ( <= ( + T4 403 )( + T2 295 ) ) )
(or ( <= ( + T2 461 )  ( + T4 403 ) ) ( <= ( + T4 457 )( + T2 373 ) ) )
(or ( <= ( + T2 520 )  ( + T4 457 ) ) ( <= ( + T4 477 )( + T2 461 ) ) )
(or ( <= ( + T2 50 ) T5 ) ( <= ( + T5 2 ) T2 ) )
(or ( <= ( + T2 143 )  ( + T5 2 ) ) ( <= ( + T5 34 )( + T2 50 ) ) )
(or ( <= ( + T2 216 )  ( + T5 34 ) ) ( <= ( + T5 124 )( + T2 143 ) ) )
(or ( <= ( + T2 250 )  ( + T5 124 ) ) ( <= ( + T5 217 )( + T2 216 ) ) )
(or ( <= ( + T2 295 )  ( + T5 217 ) ) ( <= ( + T5 257 )( + T2 250 ) ) )
(or ( <= ( + T2 373 )  ( + T5 257 ) ) ( <= ( + T5 354 )( + T2 295 ) ) )
(or ( <= ( + T2 461 )  ( + T5 354 ) ) ( <= ( + T5 428 )( + T2 373 ) ) )
(or ( <= ( + T2 520 )  ( + T5 428 ) ) ( <= ( + T5 518 )( + T2 461 ) ) )
(or ( <= ( + T2 50 ) T6 ) ( <= ( + T6 41 ) T2 ) )
(or ( <= ( + T2 143 )  ( + T6 41 ) ) ( <= ( + T6 140 )( + T2 50 ) ) )
(or ( <= ( + T2 216 )  ( + T6 140 ) ) ( <= ( + T6 215 )( + T2 143 ) ) )
(or ( <= ( + T2 250 )  ( + T6 215 ) ) ( <= ( + T6 252 )( + T2 216 ) ) )
(or ( <= ( + T2 295 )  ( + T6 252 ) ) ( <= ( + T6 280 )( + T2 250 ) ) )
(or ( <= ( + T2 373 )  ( + T6 280 ) ) ( <= ( + T6 294 )( + T2 295 ) ) )
(or ( <= ( + T2 461 )  ( + T6 294 ) ) ( <= ( + T6 389 )( + T2 373 ) ) )
(or ( <= ( + T2 520 )  ( + T6 389 ) ) ( <= ( + T6 487 )( + T2 461 ) ) )
(or ( <= ( + T2 50 ) T7 ) ( <= ( + T7 37 ) T2 ) )
(or ( <= ( + T2 143 )  ( + T7 37 ) ) ( <= ( + T7 132 )( + T2 50 ) ) )
(or ( <= ( + T2 216 )  ( + T7 132 ) ) ( <= ( + T7 151 )( + T2 143 ) ) )
(or ( <= ( + T2 250 )  ( + T7 151 ) ) ( <= ( + T7 201 )( + T2 216 ) ) )
(or ( <= ( + T2 295 )  ( + T7 201 ) ) ( <= ( + T7 277 )( + T2 250 ) ) )
(or ( <= ( + T2 373 )  ( + T7 277 ) ) ( <= ( + T7 321 )( + T2 295 ) ) )
(or ( <= ( + T2 461 )  ( + T7 321 ) ) ( <= ( + T7 345 )( + T2 373 ) ) )
(or ( <= ( + T2 520 )  ( + T7 345 ) ) ( <= ( + T7 444 )( + T2 461 ) ) )
(or ( <= ( + T2 50 ) T8 ) ( <= ( + T8 34 ) T2 ) )
(or ( <= ( + T2 143 )  ( + T8 34 ) ) ( <= ( + T8 134 )( + T2 50 ) ) )
(or ( <= ( + T2 216 )  ( + T8 134 ) ) ( <= ( + T8 215 )( + T2 143 ) ) )
(or ( <= ( + T2 250 )  ( + T8 215 ) ) ( <= ( + T8 246 )( + T2 216 ) ) )
(or ( <= ( + T2 295 )  ( + T8 246 ) ) ( <= ( + T8 333 )( + T2 250 ) ) )
(or ( <= ( + T2 373 )  ( + T8 333 ) ) ( <= ( + T8 420 )( + T2 295 ) ) )
(or ( <= ( + T2 461 )  ( + T8 420 ) ) ( <= ( + T8 470 )( + T2 373 ) ) )
(or ( <= ( + T2 520 )  ( + T8 470 ) ) ( <= ( + T8 558 )( + T2 461 ) ) )
(or ( <= ( + T2 50 ) T9 ) ( <= ( + T9 70 ) T2 ) )
(or ( <= ( + T2 143 )  ( + T9 70 ) ) ( <= ( + T9 162 )( + T2 50 ) ) )
(or ( <= ( + T2 216 )  ( + T9 162 ) ) ( <= ( + T9 242 )( + T2 143 ) ) )
(or ( <= ( + T2 250 )  ( + T9 242 ) ) ( <= ( + T9 251 )( + T2 216 ) ) )
(or ( <= ( + T2 295 )  ( + T9 251 ) ) ( <= ( + T9 291 )( + T2 250 ) ) )
(or ( <= ( + T2 373 )  ( + T9 291 ) ) ( <= ( + T9 297 )( + T2 295 ) ) )
(or ( <= ( + T2 461 )  ( + T9 297 ) ) ( <= ( + T9 347 )( + T2 373 ) ) )
(or ( <= ( + T2 520 )  ( + T9 347 ) ) ( <= ( + T9 427 )( + T2 461 ) ) )
(or ( <= ( + T2 50 ) T10 ) ( <= ( + T10 4 ) T2 ) )
(or ( <= ( + T2 143 )  ( + T10 4 ) ) ( <= ( + T10 80 )( + T2 50 ) ) )
(or ( <= ( + T2 216 )  ( + T10 80 ) ) ( <= ( + T10 96 )( + T2 143 ) ) )
(or ( <= ( + T2 250 )  ( + T10 96 ) ) ( <= ( + T10 179 )( + T2 216 ) ) )
(or ( <= ( + T2 295 )  ( + T10 179 ) ) ( <= ( + T10 269 )( + T2 250 ) ) )
(or ( <= ( + T2 373 )  ( + T10 269 ) ) ( <= ( + T10 331 )( + T2 295 ) ) )
(or ( <= ( + T2 461 )  ( + T10 331 ) ) ( <= ( + T10 411 )( + T2 373 ) ) )
(or ( <= ( + T2 520 )  ( + T10 411 ) ) ( <= ( + T10 437 )( + T2 461 ) ) )
(or ( <= ( + T3 71 ) T4 ) ( <= ( + T4 72 ) T3 ) )
(or ( <= ( + T3 95 )  ( + T4 72 ) ) ( <= ( + T4 162 )( + T3 71 ) ) )
(or ( <= ( + T3 144 )  ( + T4 162 ) ) ( <= ( + T4 187 )( + T3 95 ) ) )
(or ( <= ( + T3 213 )  ( + T4 187 ) ) ( <= ( + T4 270 )( + T3 144 ) ) )
(or ( <= ( + T3 274 )  ( + T4 270 ) ) ( <= ( + T4 316 )( + T3 213 ) ) )
(or ( <= ( + T3 356 )  ( + T4 316 ) ) ( <= ( + T4 403 )( + T3 274 ) ) )
(or ( <= ( + T3 430 )  ( + T4 403 ) ) ( <= ( + T4 457 )( + T3 356 ) ) )
(or ( <= ( + T3 505 )  ( + T4 457 ) ) ( <= ( + T4 477 )( + T3 430 ) ) )
(or ( <= ( + T3 71 ) T5 ) ( <= ( + T5 2 ) T3 ) )
(or ( <= ( + T3 95 )  ( + T5 2 ) ) ( <= ( + T5 34 )( + T3 71 ) ) )
(or ( <= ( + T3 144 )  ( + T5 34 ) ) ( <= ( + T5 124 )( + T3 95 ) ) )
(or ( <= ( + T3 213 )  ( + T5 124 ) ) ( <= ( + T5 217 )( + T3 144 ) ) )
(or ( <= ( + T3 274 )  ( + T5 217 ) ) ( <= ( + T5 257 )( + T3 213 ) ) )
(or ( <= ( + T3 356 )  ( + T5 257 ) ) ( <= ( + T5 354 )( + T3 274 ) ) )
(or ( <= ( + T3 430 )  ( + T5 354 ) ) ( <= ( + T5 428 )( + T3 356 ) ) )
(or ( <= ( + T3 505 )  ( + T5 428 ) ) ( <= ( + T5 518 )( + T3 430 ) ) )
(or ( <= ( + T3 71 ) T6 ) ( <= ( + T6 41 ) T3 ) )
(or ( <= ( + T3 95 )  ( + T6 41 ) ) ( <= ( + T6 140 )( + T3 71 ) ) )
(or ( <= ( + T3 144 )  ( + T6 140 ) ) ( <= ( + T6 215 )( + T3 95 ) ) )
(or ( <= ( + T3 213 )  ( + T6 215 ) ) ( <= ( + T6 252 )( + T3 144 ) ) )
(or ( <= ( + T3 274 )  ( + T6 252 ) ) ( <= ( + T6 280 )( + T3 213 ) ) )
(or ( <= ( + T3 356 )  ( + T6 280 ) ) ( <= ( + T6 294 )( + T3 274 ) ) )
(or ( <= ( + T3 430 )  ( + T6 294 ) ) ( <= ( + T6 389 )( + T3 356 ) ) )
(or ( <= ( + T3 505 )  ( + T6 389 ) ) ( <= ( + T6 487 )( + T3 430 ) ) )
(or ( <= ( + T3 71 ) T7 ) ( <= ( + T7 37 ) T3 ) )
(or ( <= ( + T3 95 )  ( + T7 37 ) ) ( <= ( + T7 132 )( + T3 71 ) ) )
(or ( <= ( + T3 144 )  ( + T7 132 ) ) ( <= ( + T7 151 )( + T3 95 ) ) )
(or ( <= ( + T3 213 )  ( + T7 151 ) ) ( <= ( + T7 201 )( + T3 144 ) ) )
(or ( <= ( + T3 274 )  ( + T7 201 ) ) ( <= ( + T7 277 )( + T3 213 ) ) )
(or ( <= ( + T3 356 )  ( + T7 277 ) ) ( <= ( + T7 321 )( + T3 274 ) ) )
(or ( <= ( + T3 430 )  ( + T7 321 ) ) ( <= ( + T7 345 )( + T3 356 ) ) )
(or ( <= ( + T3 505 )  ( + T7 345 ) ) ( <= ( + T7 444 )( + T3 430 ) ) )
(or ( <= ( + T3 71 ) T8 ) ( <= ( + T8 34 ) T3 ) )
(or ( <= ( + T3 95 )  ( + T8 34 ) ) ( <= ( + T8 134 )( + T3 71 ) ) )
(or ( <= ( + T3 144 )  ( + T8 134 ) ) ( <= ( + T8 215 )( + T3 95 ) ) )
(or ( <= ( + T3 213 )  ( + T8 215 ) ) ( <= ( + T8 246 )( + T3 144 ) ) )
(or ( <= ( + T3 274 )  ( + T8 246 ) ) ( <= ( + T8 333 )( + T3 213 ) ) )
(or ( <= ( + T3 356 )  ( + T8 333 ) ) ( <= ( + T8 420 )( + T3 274 ) ) )
(or ( <= ( + T3 430 )  ( + T8 420 ) ) ( <= ( + T8 470 )( + T3 356 ) ) )
(or ( <= ( + T3 505 )  ( + T8 470 ) ) ( <= ( + T8 558 )( + T3 430 ) ) )
(or ( <= ( + T3 71 ) T9 ) ( <= ( + T9 70 ) T3 ) )
(or ( <= ( + T3 95 )  ( + T9 70 ) ) ( <= ( + T9 162 )( + T3 71 ) ) )
(or ( <= ( + T3 144 )  ( + T9 162 ) ) ( <= ( + T9 242 )( + T3 95 ) ) )
(or ( <= ( + T3 213 )  ( + T9 242 ) ) ( <= ( + T9 251 )( + T3 144 ) ) )
(or ( <= ( + T3 274 )  ( + T9 251 ) ) ( <= ( + T9 291 )( + T3 213 ) ) )
(or ( <= ( + T3 356 )  ( + T9 291 ) ) ( <= ( + T9 297 )( + T3 274 ) ) )
(or ( <= ( + T3 430 )  ( + T9 297 ) ) ( <= ( + T9 347 )( + T3 356 ) ) )
(or ( <= ( + T3 505 )  ( + T9 347 ) ) ( <= ( + T9 427 )( + T3 430 ) ) )
(or ( <= ( + T3 71 ) T10 ) ( <= ( + T10 4 ) T3 ) )
(or ( <= ( + T3 95 )  ( + T10 4 ) ) ( <= ( + T10 80 )( + T3 71 ) ) )
(or ( <= ( + T3 144 )  ( + T10 80 ) ) ( <= ( + T10 96 )( + T3 95 ) ) )
(or ( <= ( + T3 213 )  ( + T10 96 ) ) ( <= ( + T10 179 )( + T3 144 ) ) )
(or ( <= ( + T3 274 )  ( + T10 179 ) ) ( <= ( + T10 269 )( + T3 213 ) ) )
(or ( <= ( + T3 356 )  ( + T10 269 ) ) ( <= ( + T10 331 )( + T3 274 ) ) )
(or ( <= ( + T3 430 )  ( + T10 331 ) ) ( <= ( + T10 411 )( + T3 356 ) ) )
(or ( <= ( + T3 505 )  ( + T10 411 ) ) ( <= ( + T10 437 )( + T3 430 ) ) )
(or ( <= ( + T4 72 ) T5 ) ( <= ( + T5 2 ) T4 ) )
(or ( <= ( + T4 162 )  ( + T5 2 ) ) ( <= ( + T5 34 )( + T4 72 ) ) )
(or ( <= ( + T4 187 )  ( + T5 34 ) ) ( <= ( + T5 124 )( + T4 162 ) ) )
(or ( <= ( + T4 270 )  ( + T5 124 ) ) ( <= ( + T5 217 )( + T4 187 ) ) )
(or ( <= ( + T4 316 )  ( + T5 217 ) ) ( <= ( + T5 257 )( + T4 270 ) ) )
(or ( <= ( + T4 403 )  ( + T5 257 ) ) ( <= ( + T5 354 )( + T4 316 ) ) )
(or ( <= ( + T4 457 )  ( + T5 354 ) ) ( <= ( + T5 428 )( + T4 403 ) ) )
(or ( <= ( + T4 477 )  ( + T5 428 ) ) ( <= ( + T5 518 )( + T4 457 ) ) )
(or ( <= ( + T4 72 ) T6 ) ( <= ( + T6 41 ) T4 ) )
(or ( <= ( + T4 162 )  ( + T6 41 ) ) ( <= ( + T6 140 )( + T4 72 ) ) )
(or ( <= ( + T4 187 )  ( + T6 140 ) ) ( <= ( + T6 215 )( + T4 162 ) ) )
(or ( <= ( + T4 270 )  ( + T6 215 ) ) ( <= ( + T6 252 )( + T4 187 ) ) )
(or ( <= ( + T4 316 )  ( + T6 252 ) ) ( <= ( + T6 280 )( + T4 270 ) ) )
(or ( <= ( + T4 403 )  ( + T6 280 ) ) ( <= ( + T6 294 )( + T4 316 ) ) )
(or ( <= ( + T4 457 )  ( + T6 294 ) ) ( <= ( + T6 389 )( + T4 403 ) ) )
(or ( <= ( + T4 477 )  ( + T6 389 ) ) ( <= ( + T6 487 )( + T4 457 ) ) )
(or ( <= ( + T4 72 ) T7 ) ( <= ( + T7 37 ) T4 ) )
(or ( <= ( + T4 162 )  ( + T7 37 ) ) ( <= ( + T7 132 )( + T4 72 ) ) )
(or ( <= ( + T4 187 )  ( + T7 132 ) ) ( <= ( + T7 151 )( + T4 162 ) ) )
(or ( <= ( + T4 270 )  ( + T7 151 ) ) ( <= ( + T7 201 )( + T4 187 ) ) )
(or ( <= ( + T4 316 )  ( + T7 201 ) ) ( <= ( + T7 277 )( + T4 270 ) ) )
(or ( <= ( + T4 403 )  ( + T7 277 ) ) ( <= ( + T7 321 )( + T4 316 ) ) )
(or ( <= ( + T4 457 )  ( + T7 321 ) ) ( <= ( + T7 345 )( + T4 403 ) ) )
(or ( <= ( + T4 477 )  ( + T7 345 ) ) ( <= ( + T7 444 )( + T4 457 ) ) )
(or ( <= ( + T4 72 ) T8 ) ( <= ( + T8 34 ) T4 ) )
(or ( <= ( + T4 162 )  ( + T8 34 ) ) ( <= ( + T8 134 )( + T4 72 ) ) )
(or ( <= ( + T4 187 )  ( + T8 134 ) ) ( <= ( + T8 215 )( + T4 162 ) ) )
(or ( <= ( + T4 270 )  ( + T8 215 ) ) ( <= ( + T8 246 )( + T4 187 ) ) )
(or ( <= ( + T4 316 )  ( + T8 246 ) ) ( <= ( + T8 333 )( + T4 270 ) ) )
(or ( <= ( + T4 403 )  ( + T8 333 ) ) ( <= ( + T8 420 )( + T4 316 ) ) )
(or ( <= ( + T4 457 )  ( + T8 420 ) ) ( <= ( + T8 470 )( + T4 403 ) ) )
(or ( <= ( + T4 477 )  ( + T8 470 ) ) ( <= ( + T8 558 )( + T4 457 ) ) )
(or ( <= ( + T4 72 ) T9 ) ( <= ( + T9 70 ) T4 ) )
(or ( <= ( + T4 162 )  ( + T9 70 ) ) ( <= ( + T9 162 )( + T4 72 ) ) )
(or ( <= ( + T4 187 )  ( + T9 162 ) ) ( <= ( + T9 242 )( + T4 162 ) ) )
(or ( <= ( + T4 270 )  ( + T9 242 ) ) ( <= ( + T9 251 )( + T4 187 ) ) )
(or ( <= ( + T4 316 )  ( + T9 251 ) ) ( <= ( + T9 291 )( + T4 270 ) ) )
(or ( <= ( + T4 403 )  ( + T9 291 ) ) ( <= ( + T9 297 )( + T4 316 ) ) )
(or ( <= ( + T4 457 )  ( + T9 297 ) ) ( <= ( + T9 347 )( + T4 403 ) ) )
(or ( <= ( + T4 477 )  ( + T9 347 ) ) ( <= ( + T9 427 )( + T4 457 ) ) )
(or ( <= ( + T4 72 ) T10 ) ( <= ( + T10 4 ) T4 ) )
(or ( <= ( + T4 162 )  ( + T10 4 ) ) ( <= ( + T10 80 )( + T4 72 ) ) )
(or ( <= ( + T4 187 )  ( + T10 80 ) ) ( <= ( + T10 96 )( + T4 162 ) ) )
(or ( <= ( + T4 270 )  ( + T10 96 ) ) ( <= ( + T10 179 )( + T4 187 ) ) )
(or ( <= ( + T4 316 )  ( + T10 179 ) ) ( <= ( + T10 269 )( + T4 270 ) ) )
(or ( <= ( + T4 403 )  ( + T10 269 ) ) ( <= ( + T10 331 )( + T4 316 ) ) )
(or ( <= ( + T4 457 )  ( + T10 331 ) ) ( <= ( + T10 411 )( + T4 403 ) ) )
(or ( <= ( + T4 477 )  ( + T10 411 ) ) ( <= ( + T10 437 )( + T4 457 ) ) )
(or ( <= ( + T5 2 ) T6 ) ( <= ( + T6 41 ) T5 ) )
(or ( <= ( + T5 34 )  ( + T6 41 ) ) ( <= ( + T6 140 )( + T5 2 ) ) )
(or ( <= ( + T5 124 )  ( + T6 140 ) ) ( <= ( + T6 215 )( + T5 34 ) ) )
(or ( <= ( + T5 217 )  ( + T6 215 ) ) ( <= ( + T6 252 )( + T5 124 ) ) )
(or ( <= ( + T5 257 )  ( + T6 252 ) ) ( <= ( + T6 280 )( + T5 217 ) ) )
(or ( <= ( + T5 354 )  ( + T6 280 ) ) ( <= ( + T6 294 )( + T5 257 ) ) )
(or ( <= ( + T5 428 )  ( + T6 294 ) ) ( <= ( + T6 389 )( + T5 354 ) ) )
(or ( <= ( + T5 518 )  ( + T6 389 ) ) ( <= ( + T6 487 )( + T5 428 ) ) )
(or ( <= ( + T5 2 ) T7 ) ( <= ( + T7 37 ) T5 ) )
(or ( <= ( + T5 34 )  ( + T7 37 ) ) ( <= ( + T7 132 )( + T5 2 ) ) )
(or ( <= ( + T5 124 )  ( + T7 132 ) ) ( <= ( + T7 151 )( + T5 34 ) ) )
(or ( <= ( + T5 217 )  ( + T7 151 ) ) ( <= ( + T7 201 )( + T5 124 ) ) )
(or ( <= ( + T5 257 )  ( + T7 201 ) ) ( <= ( + T7 277 )( + T5 217 ) ) )
(or ( <= ( + T5 354 )  ( + T7 277 ) ) ( <= ( + T7 321 )( + T5 257 ) ) )
(or ( <= ( + T5 428 )  ( + T7 321 ) ) ( <= ( + T7 345 )( + T5 354 ) ) )
(or ( <= ( + T5 518 )  ( + T7 345 ) ) ( <= ( + T7 444 )( + T5 428 ) ) )
(or ( <= ( + T5 2 ) T8 ) ( <= ( + T8 34 ) T5 ) )
(or ( <= ( + T5 34 )  ( + T8 34 ) ) ( <= ( + T8 134 )( + T5 2 ) ) )
(or ( <= ( + T5 124 )  ( + T8 134 ) ) ( <= ( + T8 215 )( + T5 34 ) ) )
(or ( <= ( + T5 217 )  ( + T8 215 ) ) ( <= ( + T8 246 )( + T5 124 ) ) )
(or ( <= ( + T5 257 )  ( + T8 246 ) ) ( <= ( + T8 333 )( + T5 217 ) ) )
(or ( <= ( + T5 354 )  ( + T8 333 ) ) ( <= ( + T8 420 )( + T5 257 ) ) )
(or ( <= ( + T5 428 )  ( + T8 420 ) ) ( <= ( + T8 470 )( + T5 354 ) ) )
(or ( <= ( + T5 518 )  ( + T8 470 ) ) ( <= ( + T8 558 )( + T5 428 ) ) )
(or ( <= ( + T5 2 ) T9 ) ( <= ( + T9 70 ) T5 ) )
(or ( <= ( + T5 34 )  ( + T9 70 ) ) ( <= ( + T9 162 )( + T5 2 ) ) )
(or ( <= ( + T5 124 )  ( + T9 162 ) ) ( <= ( + T9 242 )( + T5 34 ) ) )
(or ( <= ( + T5 217 )  ( + T9 242 ) ) ( <= ( + T9 251 )( + T5 124 ) ) )
(or ( <= ( + T5 257 )  ( + T9 251 ) ) ( <= ( + T9 291 )( + T5 217 ) ) )
(or ( <= ( + T5 354 )  ( + T9 291 ) ) ( <= ( + T9 297 )( + T5 257 ) ) )
(or ( <= ( + T5 428 )  ( + T9 297 ) ) ( <= ( + T9 347 )( + T5 354 ) ) )
(or ( <= ( + T5 518 )  ( + T9 347 ) ) ( <= ( + T9 427 )( + T5 428 ) ) )
(or ( <= ( + T5 2 ) T10 ) ( <= ( + T10 4 ) T5 ) )
(or ( <= ( + T5 34 )  ( + T10 4 ) ) ( <= ( + T10 80 )( + T5 2 ) ) )
(or ( <= ( + T5 124 )  ( + T10 80 ) ) ( <= ( + T10 96 )( + T5 34 ) ) )
(or ( <= ( + T5 217 )  ( + T10 96 ) ) ( <= ( + T10 179 )( + T5 124 ) ) )
(or ( <= ( + T5 257 )  ( + T10 179 ) ) ( <= ( + T10 269 )( + T5 217 ) ) )
(or ( <= ( + T5 354 )  ( + T10 269 ) ) ( <= ( + T10 331 )( + T5 257 ) ) )
(or ( <= ( + T5 428 )  ( + T10 331 ) ) ( <= ( + T10 411 )( + T5 354 ) ) )
(or ( <= ( + T5 518 )  ( + T10 411 ) ) ( <= ( + T10 437 )( + T5 428 ) ) )
(or ( <= ( + T6 41 ) T7 ) ( <= ( + T7 37 ) T6 ) )
(or ( <= ( + T6 140 )  ( + T7 37 ) ) ( <= ( + T7 132 )( + T6 41 ) ) )
(or ( <= ( + T6 215 )  ( + T7 132 ) ) ( <= ( + T7 151 )( + T6 140 ) ) )
(or ( <= ( + T6 252 )  ( + T7 151 ) ) ( <= ( + T7 201 )( + T6 215 ) ) )
(or ( <= ( + T6 280 )  ( + T7 201 ) ) ( <= ( + T7 277 )( + T6 252 ) ) )
(or ( <= ( + T6 294 )  ( + T7 277 ) ) ( <= ( + T7 321 )( + T6 280 ) ) )
(or ( <= ( + T6 389 )  ( + T7 321 ) ) ( <= ( + T7 345 )( + T6 294 ) ) )
(or ( <= ( + T6 487 )  ( + T7 345 ) ) ( <= ( + T7 444 )( + T6 389 ) ) )
(or ( <= ( + T6 41 ) T8 ) ( <= ( + T8 34 ) T6 ) )
(or ( <= ( + T6 140 )  ( + T8 34 ) ) ( <= ( + T8 134 )( + T6 41 ) ) )
(or ( <= ( + T6 215 )  ( + T8 134 ) ) ( <= ( + T8 215 )( + T6 140 ) ) )
(or ( <= ( + T6 252 )  ( + T8 215 ) ) ( <= ( + T8 246 )( + T6 215 ) ) )
(or ( <= ( + T6 280 )  ( + T8 246 ) ) ( <= ( + T8 333 )( + T6 252 ) ) )
(or ( <= ( + T6 294 )  ( + T8 333 ) ) ( <= ( + T8 420 )( + T6 280 ) ) )
(or ( <= ( + T6 389 )  ( + T8 420 ) ) ( <= ( + T8 470 )( + T6 294 ) ) )
(or ( <= ( + T6 487 )  ( + T8 470 ) ) ( <= ( + T8 558 )( + T6 389 ) ) )
(or ( <= ( + T6 41 ) T9 ) ( <= ( + T9 70 ) T6 ) )
(or ( <= ( + T6 140 )  ( + T9 70 ) ) ( <= ( + T9 162 )( + T6 41 ) ) )
(or ( <= ( + T6 215 )  ( + T9 162 ) ) ( <= ( + T9 242 )( + T6 140 ) ) )
(or ( <= ( + T6 252 )  ( + T9 242 ) ) ( <= ( + T9 251 )( + T6 215 ) ) )
(or ( <= ( + T6 280 )  ( + T9 251 ) ) ( <= ( + T9 291 )( + T6 252 ) ) )
(or ( <= ( + T6 294 )  ( + T9 291 ) ) ( <= ( + T9 297 )( + T6 280 ) ) )
(or ( <= ( + T6 389 )  ( + T9 297 ) ) ( <= ( + T9 347 )( + T6 294 ) ) )
(or ( <= ( + T6 487 )  ( + T9 347 ) ) ( <= ( + T9 427 )( + T6 389 ) ) )
(or ( <= ( + T6 41 ) T10 ) ( <= ( + T10 4 ) T6 ) )
(or ( <= ( + T6 140 )  ( + T10 4 ) ) ( <= ( + T10 80 )( + T6 41 ) ) )
(or ( <= ( + T6 215 )  ( + T10 80 ) ) ( <= ( + T10 96 )( + T6 140 ) ) )
(or ( <= ( + T6 252 )  ( + T10 96 ) ) ( <= ( + T10 179 )( + T6 215 ) ) )
(or ( <= ( + T6 280 )  ( + T10 179 ) ) ( <= ( + T10 269 )( + T6 252 ) ) )
(or ( <= ( + T6 294 )  ( + T10 269 ) ) ( <= ( + T10 331 )( + T6 280 ) ) )
(or ( <= ( + T6 389 )  ( + T10 331 ) ) ( <= ( + T10 411 )( + T6 294 ) ) )
(or ( <= ( + T6 487 )  ( + T10 411 ) ) ( <= ( + T10 437 )( + T6 389 ) ) )
(or ( <= ( + T7 37 ) T8 ) ( <= ( + T8 34 ) T7 ) )
(or ( <= ( + T7 132 )  ( + T8 34 ) ) ( <= ( + T8 134 )( + T7 37 ) ) )
(or ( <= ( + T7 151 )  ( + T8 134 ) ) ( <= ( + T8 215 )( + T7 132 ) ) )
(or ( <= ( + T7 201 )  ( + T8 215 ) ) ( <= ( + T8 246 )( + T7 151 ) ) )
(or ( <= ( + T7 277 )  ( + T8 246 ) ) ( <= ( + T8 333 )( + T7 201 ) ) )
(or ( <= ( + T7 321 )  ( + T8 333 ) ) ( <= ( + T8 420 )( + T7 277 ) ) )
(or ( <= ( + T7 345 )  ( + T8 420 ) ) ( <= ( + T8 470 )( + T7 321 ) ) )
(or ( <= ( + T7 444 )  ( + T8 470 ) ) ( <= ( + T8 558 )( + T7 345 ) ) )
(or ( <= ( + T7 37 ) T9 ) ( <= ( + T9 70 ) T7 ) )
(or ( <= ( + T7 132 )  ( + T9 70 ) ) ( <= ( + T9 162 )( + T7 37 ) ) )
(or ( <= ( + T7 151 )  ( + T9 162 ) ) ( <= ( + T9 242 )( + T7 132 ) ) )
(or ( <= ( + T7 201 )  ( + T9 242 ) ) ( <= ( + T9 251 )( + T7 151 ) ) )
(or ( <= ( + T7 277 )  ( + T9 251 ) ) ( <= ( + T9 291 )( + T7 201 ) ) )
(or ( <= ( + T7 321 )  ( + T9 291 ) ) ( <= ( + T9 297 )( + T7 277 ) ) )
(or ( <= ( + T7 345 )  ( + T9 297 ) ) ( <= ( + T9 347 )( + T7 321 ) ) )
(or ( <= ( + T7 444 )  ( + T9 347 ) ) ( <= ( + T9 427 )( + T7 345 ) ) )
(or ( <= ( + T7 37 ) T10 ) ( <= ( + T10 4 ) T7 ) )
(or ( <= ( + T7 132 )  ( + T10 4 ) ) ( <= ( + T10 80 )( + T7 37 ) ) )
(or ( <= ( + T7 151 )  ( + T10 80 ) ) ( <= ( + T10 96 )( + T7 132 ) ) )
(or ( <= ( + T7 201 )  ( + T10 96 ) ) ( <= ( + T10 179 )( + T7 151 ) ) )
(or ( <= ( + T7 277 )  ( + T10 179 ) ) ( <= ( + T10 269 )( + T7 201 ) ) )
(or ( <= ( + T7 321 )  ( + T10 269 ) ) ( <= ( + T10 331 )( + T7 277 ) ) )
(or ( <= ( + T7 345 )  ( + T10 331 ) ) ( <= ( + T10 411 )( + T7 321 ) ) )
(or ( <= ( + T7 444 )  ( + T10 411 ) ) ( <= ( + T10 437 )( + T7 345 ) ) )
(or ( <= ( + T8 34 ) T9 ) ( <= ( + T9 70 ) T8 ) )
(or ( <= ( + T8 134 )  ( + T9 70 ) ) ( <= ( + T9 162 )( + T8 34 ) ) )
(or ( <= ( + T8 215 )  ( + T9 162 ) ) ( <= ( + T9 242 )( + T8 134 ) ) )
(or ( <= ( + T8 246 )  ( + T9 242 ) ) ( <= ( + T9 251 )( + T8 215 ) ) )
(or ( <= ( + T8 333 )  ( + T9 251 ) ) ( <= ( + T9 291 )( + T8 246 ) ) )
(or ( <= ( + T8 420 )  ( + T9 291 ) ) ( <= ( + T9 297 )( + T8 333 ) ) )
(or ( <= ( + T8 470 )  ( + T9 297 ) ) ( <= ( + T9 347 )( + T8 420 ) ) )
(or ( <= ( + T8 558 )  ( + T9 347 ) ) ( <= ( + T9 427 )( + T8 470 ) ) )
(or ( <= ( + T8 34 ) T10 ) ( <= ( + T10 4 ) T8 ) )
(or ( <= ( + T8 134 )  ( + T10 4 ) ) ( <= ( + T10 80 )( + T8 34 ) ) )
(or ( <= ( + T8 215 )  ( + T10 80 ) ) ( <= ( + T10 96 )( + T8 134 ) ) )
(or ( <= ( + T8 246 )  ( + T10 96 ) ) ( <= ( + T10 179 )( + T8 215 ) ) )
(or ( <= ( + T8 333 )  ( + T10 179 ) ) ( <= ( + T10 269 )( + T8 246 ) ) )
(or ( <= ( + T8 420 )  ( + T10 269 ) ) ( <= ( + T10 331 )( + T8 333 ) ) )
(or ( <= ( + T8 470 )  ( + T10 331 ) ) ( <= ( + T10 411 )( + T8 420 ) ) )
(or ( <= ( + T8 558 )  ( + T10 411 ) ) ( <= ( + T10 437 )( + T8 470 ) ) )
(or ( <= ( + T9 70 ) T10 ) ( <= ( + T10 4 ) T9 ) )
(or ( <= ( + T9 162 )  ( + T10 4 ) ) ( <= ( + T10 80 )( + T9 70 ) ) )
(or ( <= ( + T9 242 )  ( + T10 80 ) ) ( <= ( + T10 96 )( + T9 162 ) ) )
(or ( <= ( + T9 251 )  ( + T10 96 ) ) ( <= ( + T10 179 )( + T9 242 ) ) )
(or ( <= ( + T9 291 )  ( + T10 179 ) ) ( <= ( + T10 269 )( + T9 251 ) ) )
(or ( <= ( + T9 297 )  ( + T10 269 ) ) ( <= ( + T10 331 )( + T9 291 ) ) )
(or ( <= ( + T9 347 )  ( + T10 331 ) ) ( <= ( + T10 411 )( + T9 297 ) ) )
(or ( <= ( + T9 427 )  ( + T10 411 ) ) ( <= ( + T10 437 )( + T9 347 ) ) )
( <= ( + T1 473 ) Z)
( <= ( + T2 520 ) Z)
( <= ( + T3 505 ) Z)
( <= ( + T4 477 ) Z)
( <= ( + T5 518 ) Z)
( <= ( + T6 487 ) Z)
( <= ( + T7 444 ) Z)
( <= ( + T8 558 ) Z)
( <= ( + T9 427 ) Z)
( <= ( + T10 437 ) Z)
( >= T1 0 )
( >= T2 0 )
( >= T3 0 )
( >= T4 0 )
( >= T5 0 )
( >= T6 0 )
( >= T7 0 )
( >= T8 0 )
( >= T9 0 )
( >= T10 0 )
) )
)(=> $phi $goal))))